problem_generation/data/GISP/train/er_n=60_m=1078_p=0.60_SET2_setparam=100.00_alpha=0.50_466.lp
maximize
OBJ:100x0 + 100x1 + 100x2 + 100x3 + 100x4 + 100x5 + 100x6 + 100x7 + 100x8 + 100x9 + 100x10 + 100x11 + 100x12 + 100x13 + 100x14 + 100x15 + 100x16 + 100x17 + 100x18 + 100x19 + 100x20 + 100x21 + 100x22 + 100x23 + 100x24 + 100x25 + 100x26 + 100x27 + 100x28 + 100x29 + 100x30 + 100x31 + 100x32 + 100x33 + 100x34 + 100x35 + 100x36 + 100x37 + 100x38 + 100x39 + 100x40 + 100x41 + 100x42 + 100x43 + 100x44 + 100x45 + 100x46 + 100x47 + 100x48 + 100x49 + 100x50 + 100x51 + 100x52 + 100x53 + 100x54 + 100x55 + 100x56 + 100x57 + 100x58 + 100x59 - y15_21 - y55_57 - y36_53 - y47_53 - y7_26 - y17_58 - y7_35 - y8_9 - y40_41 - y0_14 - y0_23 - y10_27 - y10_45 - y33_47 - y44_56 - y3_15 - y14_33 - y22_46 - y3_42 - y14_51 - y47_48 - y15_25 - y17_44 - y47_57 - y17_53 - y48_49 - y21_59 - y2_27 - y10_40 - y10_49 - y25_47 - y51_59 - y32_55 - y43_55 - y14_28 - y16_56 - y36_43 - y17_39 - y28_39 - y17_48 - y28_57 - y9_53 - y6_29 - y21_27 - y6_38 - y29_40 - y6_47 - y21_45 - y2_13 - y2_22 - y51_54 - y2_49 - y3_14 - y32_50 - y13_46 - y24_46 - y32_59 - y35_46 - y43_59 - y13_55 - y24_55 - y7_11 - y36_47 - y28_43 - y9_39 - y5_59 - y6_24 - y9_57 - y21_22 - y29_35 - y21_49 - y10_12 - y31_53 - y10_30 - y23_58 - y32_45 - y43_45 - y13_41 - y24_41 - y3_18 - y16_37 - y32_54 - y24_50 - y35_50 - y1_57 - y24_59 - y35_59 - y17_20 - y28_29 - y36_51 - y9_34 - y28_47 - y6_19 - y9_52 - y50_53 - y29_30 - y21_26 - y42_58 - y6_46 - y2_3 - y10_16 - y39_52 - y2_12 - y2_21 - y31_57 - y54_59 - y24_27 - y4_58 - y24_36 - y32_58 - y16_41 - y13_54 - y24_54 - y16_50 - y9_20 - y17_42 - y28_42 - y9_38 - y5_49 - y9_47 - y6_32 - y8_51 - y42_53 - y0_56 - y11_56 - y31_34 - y39_47 - y39_56 - y12_39 - y23_39 - y2_16 - y12_48 - y23_48 - y23_57 - y13_31 - y24_31 - y32_44 - y5_17 - y46_55 - y9_15 - y6_18 - y27_59 - y8_55 - y42_57 - y0_51 - y4_30 - y20_56 - y4_39 - y1_15 - y13_17 - y4_57 - y34_58 - y24_35 - y13_44 - y35_44 - y1_51 - y9_10 - y5_21 - y26_53 - y49_55 - y5_39 - y6_13 - y27_54 - y50_56 - y8_59 - y30_59 - y11_55 - y12_20 - y31_51 - y12_47 - y4_43 - y53_57 - y1_46 - y38_41 - y9_14 - y49_59 - y8_27 - y19_27 - y27_40 - y19_36 - y0_32 - y11_32 - y8_45 - y27_58 - y42_56 - y4_11 - y11_59 - y23_24 - y23_33 - y23_42 - y34_39 - y13_16 - y34_48 - y24_25 - y34_57 - y1_32 - y37_53 - y15_43 - y18_39 - y26_52 - y8_13 - y18_57 - y19_22 - y27_35 - y0_18 - y11_27 - y0_36 - y11_36 - y8_49 - y0_45 - y12_19 - y52_55 - y20_32 - y33_51 - y1_9 - y37_39 - y45_52 - y37_48 - y22_59 - y15_29 - y7_34 - y38_49 - y7_43 - y7_52 - y18_52 - y0_13 - y8_26 - y19_26 - y11_31 - y30_44 - y41_50 - y12_23 - y10_53 - y25_51 - y2_58 - y22_36 - y34_38 - y37_43 - y3_59 - y7_20 - y26_33 - y18_29 - y15_42 - y7_38 - y7_47 - y8_12 - y7_56 - y18_56 - y11_17 - y19_30 - y11_26 - y41_54 - y52_54 - y25_46 - y44_59 - y25_55 - y14_27 - y3_36 - y14_36 - y3_54 - y26_28 - y7_42 - y0_3 - y8_16 - y11_12 - y29_48 - y19_25 - y21_44 - y0_21 - y6_55 - y40_57 - y21_53 - y41_49 - y4_9 - y25_41 - y25_50 - y3_13 - y3_40 - y3_49 - y15_23 - y7_19 - y18_19 - y15_32 - y18_37 - y8_11 - y0_7 - y40_43 - y48_56 - y21_39 - y0_16 - y6_50 - y11_16 - y10_20 - y10_29 - y2_25 - y10_47 - y2_43 - y3_8 - y10_56 - y2_52 - y14_26 - y22_39 - y24_58 - y3_44 - y36_41 - y17_46 - y28_46 - y18_23 - y9_42 - y47_59 - y5_53 - y0_2 - y21_34 - y6_45 - y21_52 - y10_42 - y25_40 - y10_51 - y32_48 - y22_25 - y2_56 - y3_21 - y43_57 - y13_53 - y17_32 - y47_54 - y9_37 - y5_48 - y17_50 - y5_57 - y28_59 - y6_31 - y6_40 - y21_47 - y32_34 - y13_39 - y3_16 - y16_44 - y1_55 - y9_23 - y5_34 - y36_49 - y9_32 - y47_49 - y5_43 - y17_45 - y47_58 - y9_41 - y5_52 - y9_50 - y9_59 - y21_33 - y6_44 - y10_14 - y2_10 - y39_59 - y23_51 - y13_25 - y4_56 - y32_38 - y3_11 - y13_43 - y43_56 - y13_52 - y24_52 - y9_18 - y17_31 - y5_38 - y3_56 - y9_36 - y5_47 - y17_49 - y5_56 - y42_51 - y39_54 - y20_50 - y20_59 - y31_59 - y13_20 - y32_33 - y13_29 - y24_29 - y32_42 - y13_38 - y24_38 - y43_51 - y13_47 - y24_47 - y16_43 - y1_54 - y35_56 - y16_52 - y5_15 - y9_13 - y36_39 - y38_58 - y17_35 - y9_31 - y6_7 - y9_40 - y5_51 - y20_27 - y31_36 - y10_13 - y12_32 - y20_45 - y23_41 - y54_56 - y4_37 - y12_50 - y13_15 - y23_59 - y1_22 - y13_33 - y16_29 - y16_38 - y24_51 - y35_51 - y5_10 - y1_58 - y5_19 - y17_21 - y38_53 - y9_35 - y27_34 - y6_11 - y30_39 - y50_54 - y8_48 - y19_48 - y42_59 - y20_22 - y11_53 - y12_18 - y23_27 - y2_4 - y4_32 - y12_45 - y1_8 - y20_58 - y23_54 - y13_19 - y53_55 - y13_28 - y4_59 - y24_37 - y5_14 - y9_12 - y38_48 - y5_23 - y26_55 - y38_57 - y8_25 - y19_34 - y11_39 - y19_52 - y30_52 - y0_48 - y20_35 - y20_44 - y23_40 - y1_12 - y16_19 - y34_55 - y1_30 - y45_55 - y16_28 - y1_39 - y46_47 - y38_43 - y15_50 - y26_50 - y18_55 - y0_25 - y30_38 - y41_53 - y20_30 - y23_26 - y4_22 - y23_44 - y4_40 - y34_59 - y56_59 - y5_13 - y46_51 - y26_45 - y26_54 - y49_56 - y19_24 - y19_33 - y0_29 - y8_42 - y30_42 - y0_38 - y0_47 - y4_17 - y44_53 - y23_30 - y4_26 - y25_58 - y34_36 - y34_45 - y3_39 - y37_41 - y22_52 - y34_54 - y14_48 - y37_50 - y37_59 - y7_18 - y15_31 - y15_49 - y26_49 - y7_45 - y18_45 - y0_6 - y48_55 - y11_24 - y8_37 - y33_48 - y2_51 - y3_34 - y22_47 - y45_49 - y3_43 - y37_45 - y3_52 - y15_35 - y18_40 - y8_23 - y19_23 - y0_19 - y6_53 - y40_55 - y0_28 - y33_34 - y25_30 - y10_41 - y52_56 - y4_16 - y25_48 - y2_55 - y3_20 - y14_56
 Subject to
C1: x0+x2-y0_2 <=1 
C2: x0+x3-y0_3 <=1 
C3: x0+x5 <=1 
C4: x0+x6-y0_6 <=1 
C5: x0+x7-y0_7 <=1 
C6: x0+x10 <=1 
C7: x0+x11 <=1 
C8: x0+x12 <=1 
C9: x0+x13-y0_13 <=1 
C10: x0+x14-y0_14 <=1 
C11: x0+x16-y0_16 <=1 
C12: x0+x18-y0_18 <=1 
C13: x0+x19-y0_19 <=1 
C14: x0+x20 <=1 
C15: x0+x21-y0_21 <=1 
C16: x0+x22 <=1 
C17: x0+x23-y0_23 <=1 
C18: x0+x24 <=1 
C19: x0+x25-y0_25 <=1 
C20: x0+x27 <=1 
C21: x0+x28-y0_28 <=1 
C22: x0+x29-y0_29 <=1 
C23: x0+x32-y0_32 <=1 
C24: x0+x34 <=1 
C25: x0+x35 <=1 
C26: x0+x36-y0_36 <=1 
C27: x0+x38-y0_38 <=1 
C28: x0+x40 <=1 
C29: x0+x42 <=1 
C30: x0+x43 <=1 
C31: x0+x45-y0_45 <=1 
C32: x0+x46 <=1 
C33: x0+x47-y0_47 <=1 
C34: x0+x48-y0_48 <=1 
C35: x0+x51-y0_51 <=1 
C36: x0+x53 <=1 
C37: x0+x56-y0_56 <=1 
C38: x0+x57 <=1 
C39: x1+x3 <=1 
C40: x1+x4 <=1 
C41: x1+x8-y1_8 <=1 
C42: x1+x9-y1_9 <=1 
C43: x1+x11 <=1 
C44: x1+x12-y1_12 <=1 
C45: x1+x13 <=1 
C46: x1+x15-y1_15 <=1 
C47: x1+x16 <=1 
C48: x1+x18 <=1 
C49: x1+x19 <=1 
C50: x1+x22-y1_22 <=1 
C51: x1+x23 <=1 
C52: x1+x24 <=1 
C53: x1+x27 <=1 
C54: x1+x29 <=1 
C55: x1+x30-y1_30 <=1 
C56: x1+x32-y1_32 <=1 
C57: x1+x33 <=1 
C58: x1+x34 <=1 
C59: x1+x35 <=1 
C60: x1+x38 <=1 
C61: x1+x39-y1_39 <=1 
C62: x1+x42 <=1 
C63: x1+x44 <=1 
C64: x1+x45 <=1 
C65: x1+x46-y1_46 <=1 
C66: x1+x47 <=1 
C67: x1+x48 <=1 
C68: x1+x51-y1_51 <=1 
C69: x1+x54-y1_54 <=1 
C70: x1+x55-y1_55 <=1 
C71: x1+x56 <=1 
C72: x1+x57-y1_57 <=1 
C73: x1+x58-y1_58 <=1 
C74: x1+x59 <=1 
C75: x2+x3-y2_3 <=1 
C76: x2+x4-y2_4 <=1 
C77: x2+x5 <=1 
C78: x2+x9 <=1 
C79: x2+x10-y2_10 <=1 
C80: x2+x12-y2_12 <=1 
C81: x2+x13-y2_13 <=1 
C82: x2+x14 <=1 
C83: x2+x15 <=1 
C84: x2+x16-y2_16 <=1 
C85: x2+x17 <=1 
C86: x2+x21-y2_21 <=1 
C87: x2+x22-y2_22 <=1 
C88: x2+x23 <=1 
C89: x2+x25-y2_25 <=1 
C90: x2+x27-y2_27 <=1 
C91: x2+x30 <=1 
C92: x2+x31 <=1 
C93: x2+x36 <=1 
C94: x2+x37 <=1 
C95: x2+x41 <=1 
C96: x2+x43-y2_43 <=1 
C97: x2+x44 <=1 
C98: x2+x46 <=1 
C99: x2+x49-y2_49 <=1 
C100: x2+x50 <=1 
C101: x2+x51-y2_51 <=1 
C102: x2+x52-y2_52 <=1 
C103: x2+x55-y2_55 <=1 
C104: x2+x56-y2_56 <=1 
C105: x2+x58-y2_58 <=1 
C106: x3+x6 <=1 
C107: x3+x7 <=1 
C108: x3+x8-y3_8 <=1 
C109: x3+x9 <=1 
C110: x3+x10 <=1 
C111: x3+x11-y3_11 <=1 
C112: x3+x13-y3_13 <=1 
C113: x3+x14-y3_14 <=1 
C114: x3+x15-y3_15 <=1 
C115: x3+x16-y3_16 <=1 
C116: x3+x17 <=1 
C117: x3+x18-y3_18 <=1 
C118: x3+x20-y3_20 <=1 
C119: x3+x21-y3_21 <=1 
C120: x3+x29 <=1 
C121: x3+x32 <=1 
C122: x3+x33 <=1 
C123: x3+x34-y3_34 <=1 
C124: x3+x36-y3_36 <=1 
C125: x3+x38 <=1 
C126: x3+x39-y3_39 <=1 
C127: x3+x40-y3_40 <=1 
C128: x3+x41 <=1 
C129: x3+x42-y3_42 <=1 
C130: x3+x43-y3_43 <=1 
C131: x3+x44-y3_44 <=1 
C132: x3+x46 <=1 
C133: x3+x47 <=1 
C134: x3+x48 <=1 
C135: x3+x49-y3_49 <=1 
C136: x3+x52-y3_52 <=1 
C137: x3+x54-y3_54 <=1 
C138: x3+x55 <=1 
C139: x3+x56-y3_56 <=1 
C140: x3+x57 <=1 
C141: x3+x59-y3_59 <=1 
C142: x4+x6 <=1 
C143: x4+x8 <=1 
C144: x4+x9-y4_9 <=1 
C145: x4+x11-y4_11 <=1 
C146: x4+x12 <=1 
C147: x4+x13 <=1 
C148: x4+x14 <=1 
C149: x4+x15 <=1 
C150: x4+x16-y4_16 <=1 
C151: x4+x17-y4_17 <=1 
C152: x4+x18 <=1 
C153: x4+x19 <=1 
C154: x4+x20 <=1 
C155: x4+x22-y4_22 <=1 
C156: x4+x24 <=1 
C157: x4+x26-y4_26 <=1 
C158: x4+x30-y4_30 <=1 
C159: x4+x31 <=1 
C160: x4+x32-y4_32 <=1 
C161: x4+x33 <=1 
C162: x4+x34 <=1 
C163: x4+x35 <=1 
C164: x4+x37-y4_37 <=1 
C165: x4+x39-y4_39 <=1 
C166: x4+x40-y4_40 <=1 
C167: x4+x41 <=1 
C168: x4+x42 <=1 
C169: x4+x43-y4_43 <=1 
C170: x4+x44 <=1 
C171: x4+x46 <=1 
C172: x4+x47 <=1 
C173: x4+x48 <=1 
C174: x4+x50 <=1 
C175: x4+x53 <=1 
C176: x4+x56-y4_56 <=1 
C177: x4+x57-y4_57 <=1 
C178: x4+x58-y4_58 <=1 
C179: x4+x59-y4_59 <=1 
C180: x5+x8 <=1 
C181: x5+x10-y5_10 <=1 
C182: x5+x11 <=1 
C183: x5+x13-y5_13 <=1 
C184: x5+x14-y5_14 <=1 
C185: x5+x15-y5_15 <=1 
C186: x5+x17-y5_17 <=1 
C187: x5+x19-y5_19 <=1 
C188: x5+x21-y5_21 <=1 
C189: x5+x22 <=1 
C190: x5+x23-y5_23 <=1 
C191: x5+x24 <=1 
C192: x5+x26 <=1 
C193: x5+x28 <=1 
C194: x5+x29 <=1 
C195: x5+x30 <=1 
C196: x5+x31 <=1 
C197: x5+x32 <=1 
C198: x5+x33 <=1 
C199: x5+x34-y5_34 <=1 
C200: x5+x35 <=1 
C201: x5+x37 <=1 
C202: x5+x38-y5_38 <=1 
C203: x5+x39-y5_39 <=1 
C204: x5+x43-y5_43 <=1 
C205: x5+x44 <=1 
C206: x5+x45 <=1 
C207: x5+x46 <=1 
C208: x5+x47-y5_47 <=1 
C209: x5+x48-y5_48 <=1 
C210: x5+x49-y5_49 <=1 
C211: x5+x50 <=1 
C212: x5+x51-y5_51 <=1 
C213: x5+x52-y5_52 <=1 
C214: x5+x53-y5_53 <=1 
C215: x5+x55 <=1 
C216: x5+x56-y5_56 <=1 
C217: x5+x57-y5_57 <=1 
C218: x5+x59-y5_59 <=1 
C219: x6+x7-y6_7 <=1 
C220: x6+x9 <=1 
C221: x6+x10 <=1 
C222: x6+x11-y6_11 <=1 
C223: x6+x12 <=1 
C224: x6+x13-y6_13 <=1 
C225: x6+x15 <=1 
C226: x6+x18-y6_18 <=1 
C227: x6+x19-y6_19 <=1 
C228: x6+x23 <=1 
C229: x6+x24-y6_24 <=1 
C230: x6+x25 <=1 
C231: x6+x29-y6_29 <=1 
C232: x6+x30 <=1 
C233: x6+x31-y6_31 <=1 
C234: x6+x32-y6_32 <=1 
C235: x6+x33 <=1 
C236: x6+x35 <=1 
C237: x6+x36 <=1 
C238: x6+x38-y6_38 <=1 
C239: x6+x40-y6_40 <=1 
C240: x6+x44-y6_44 <=1 
C241: x6+x45-y6_45 <=1 
C242: x6+x46-y6_46 <=1 
C243: x6+x47-y6_47 <=1 
C244: x6+x49 <=1 
C245: x6+x50-y6_50 <=1 
C246: x6+x51 <=1 
C247: x6+x53-y6_53 <=1 
C248: x6+x54 <=1 
C249: x6+x55-y6_55 <=1 
C250: x6+x57 <=1 
C251: x7+x11-y7_11 <=1 
C252: x7+x13 <=1 
C253: x7+x14 <=1 
C254: x7+x16 <=1 
C255: x7+x18-y7_18 <=1 
C256: x7+x19-y7_19 <=1 
C257: x7+x20-y7_20 <=1 
C258: x7+x21 <=1 
C259: x7+x26-y7_26 <=1 
C260: x7+x29 <=1 
C261: x7+x31 <=1 
C262: x7+x32 <=1 
C263: x7+x33 <=1 
C264: x7+x34-y7_34 <=1 
C265: x7+x35-y7_35 <=1 
C266: x7+x36 <=1 
C267: x7+x38-y7_38 <=1 
C268: x7+x42-y7_42 <=1 
C269: x7+x43-y7_43 <=1 
C270: x7+x44 <=1 
C271: x7+x45-y7_45 <=1 
C272: x7+x46 <=1 
C273: x7+x47-y7_47 <=1 
C274: x7+x49 <=1 
C275: x7+x52-y7_52 <=1 
C276: x7+x54 <=1 
C277: x7+x55 <=1 
C278: x7+x56-y7_56 <=1 
C279: x7+x57 <=1 
C280: x7+x59 <=1 
C281: x8+x9-y8_9 <=1 
C282: x8+x11-y8_11 <=1 
C283: x8+x12-y8_12 <=1 
C284: x8+x13-y8_13 <=1 
C285: x8+x14 <=1 
C286: x8+x15 <=1 
C287: x8+x16-y8_16 <=1 
C288: x8+x18 <=1 
C289: x8+x19 <=1 
C290: x8+x23-y8_23 <=1 
C291: x8+x24 <=1 
C292: x8+x25-y8_25 <=1 
C293: x8+x26-y8_26 <=1 
C294: x8+x27-y8_27 <=1 
C295: x8+x36 <=1 
C296: x8+x37-y8_37 <=1 
C297: x8+x38 <=1 
C298: x8+x42-y8_42 <=1 
C299: x8+x44 <=1 
C300: x8+x45-y8_45 <=1 
C301: x8+x48-y8_48 <=1 
C302: x8+x49-y8_49 <=1 
C303: x8+x51-y8_51 <=1 
C304: x8+x53 <=1 
C305: x8+x55-y8_55 <=1 
C306: x8+x58 <=1 
C307: x8+x59-y8_59 <=1 
C308: x9+x10-y9_10 <=1 
C309: x9+x12-y9_12 <=1 
C310: x9+x13-y9_13 <=1 
C311: x9+x14-y9_14 <=1 
C312: x9+x15-y9_15 <=1 
C313: x9+x17 <=1 
C314: x9+x18-y9_18 <=1 
C315: x9+x19 <=1 
C316: x9+x20-y9_20 <=1 
C317: x9+x22 <=1 
C318: x9+x23-y9_23 <=1 
C319: x9+x26 <=1 
C320: x9+x27 <=1 
C321: x9+x30 <=1 
C322: x9+x31-y9_31 <=1 
C323: x9+x32-y9_32 <=1 
C324: x9+x34-y9_34 <=1 
C325: x9+x35-y9_35 <=1 
C326: x9+x36-y9_36 <=1 
C327: x9+x37-y9_37 <=1 
C328: x9+x38-y9_38 <=1 
C329: x9+x39-y9_39 <=1 
C330: x9+x40-y9_40 <=1 
C331: x9+x41-y9_41 <=1 
C332: x9+x42-y9_42 <=1 
C333: x9+x43 <=1 
C334: x9+x44 <=1 
C335: x9+x47-y9_47 <=1 
C336: x9+x50-y9_50 <=1 
C337: x9+x51 <=1 
C338: x9+x52-y9_52 <=1 
C339: x9+x53-y9_53 <=1 
C340: x9+x56 <=1 
C341: x9+x57-y9_57 <=1 
C342: x9+x59-y9_59 <=1 
C343: x10+x12-y10_12 <=1 
C344: x10+x13-y10_13 <=1 
C345: x10+x14-y10_14 <=1 
C346: x10+x15 <=1 
C347: x10+x16-y10_16 <=1 
C348: x10+x17 <=1 
C349: x10+x19 <=1 
C350: x10+x20-y10_20 <=1 
C351: x10+x21 <=1 
C352: x10+x22 <=1 
C353: x10+x25 <=1 
C354: x10+x26 <=1 
C355: x10+x27-y10_27 <=1 
C356: x10+x29-y10_29 <=1 
C357: x10+x30-y10_30 <=1 
C358: x10+x33 <=1 
C359: x10+x36 <=1 
C360: x10+x38 <=1 
C361: x10+x40-y10_40 <=1 
C362: x10+x41-y10_41 <=1 
C363: x10+x42-y10_42 <=1 
C364: x10+x45-y10_45 <=1 
C365: x10+x47-y10_47 <=1 
C366: x10+x48 <=1 
C367: x10+x49-y10_49 <=1 
C368: x10+x51-y10_51 <=1 
C369: x10+x52 <=1 
C370: x10+x53-y10_53 <=1 
C371: x10+x55 <=1 
C372: x10+x56-y10_56 <=1 
C373: x10+x57 <=1 
C374: x10+x58 <=1 
C375: x10+x59 <=1 
C376: x11+x12-y11_12 <=1 
C377: x11+x13 <=1 
C378: x11+x16-y11_16 <=1 
C379: x11+x17-y11_17 <=1 
C380: x11+x18 <=1 
C381: x11+x24-y11_24 <=1 
C382: x11+x26-y11_26 <=1 
C383: x11+x27-y11_27 <=1 
C384: x11+x28 <=1 
C385: x11+x31-y11_31 <=1 
C386: x11+x32-y11_32 <=1 
C387: x11+x36-y11_36 <=1 
C388: x11+x37 <=1 
C389: x11+x39-y11_39 <=1 
C390: x11+x42 <=1 
C391: x11+x46 <=1 
C392: x11+x47 <=1 
C393: x11+x48 <=1 
C394: x11+x51 <=1 
C395: x11+x53-y11_53 <=1 
C396: x11+x54 <=1 
C397: x11+x55-y11_55 <=1 
C398: x11+x56-y11_56 <=1 
C399: x11+x57 <=1 
C400: x11+x59-y11_59 <=1 
C401: x12+x13 <=1 
C402: x12+x18-y12_18 <=1 
C403: x12+x19-y12_19 <=1 
C404: x12+x20-y12_20 <=1 
C405: x12+x23-y12_23 <=1 
C406: x12+x27 <=1 
C407: x12+x28 <=1 
C408: x12+x30 <=1 
C409: x12+x31 <=1 
C410: x12+x32-y12_32 <=1 
C411: x12+x33 <=1 
C412: x12+x34 <=1 
C413: x12+x35 <=1 
C414: x12+x36 <=1 
C415: x12+x38 <=1 
C416: x12+x39-y12_39 <=1 
C417: x12+x45-y12_45 <=1 
C418: x12+x47-y12_47 <=1 
C419: x12+x48-y12_48 <=1 
C420: x12+x50-y12_50 <=1 
C421: x12+x52 <=1 
C422: x12+x53 <=1 
C423: x12+x56 <=1 
C424: x12+x58 <=1 
C425: x12+x59 <=1 
C426: x13+x14 <=1 
C427: x13+x15-y13_15 <=1 
C428: x13+x16-y13_16 <=1 
C429: x13+x17-y13_17 <=1 
C430: x13+x19-y13_19 <=1 
C431: x13+x20-y13_20 <=1 
C432: x13+x21 <=1 
C433: x13+x22 <=1 
C434: x13+x23 <=1 
C435: x13+x24 <=1 
C436: x13+x25-y13_25 <=1 
C437: x13+x27 <=1 
C438: x13+x28-y13_28 <=1 
C439: x13+x29-y13_29 <=1 
C440: x13+x31-y13_31 <=1 
C441: x13+x33-y13_33 <=1 
C442: x13+x34 <=1 
C443: x13+x35 <=1 
C444: x13+x36 <=1 
C445: x13+x37 <=1 
C446: x13+x38-y13_38 <=1 
C447: x13+x39-y13_39 <=1 
C448: x13+x40 <=1 
C449: x13+x41-y13_41 <=1 
C450: x13+x43-y13_43 <=1 
C451: x13+x44-y13_44 <=1 
C452: x13+x45 <=1 
C453: x13+x46-y13_46 <=1 
C454: x13+x47-y13_47 <=1 
C455: x13+x49 <=1 
C456: x13+x50 <=1 
C457: x13+x51 <=1 
C458: x13+x52-y13_52 <=1 
C459: x13+x53-y13_53 <=1 
C460: x13+x54-y13_54 <=1 
C461: x13+x55-y13_55 <=1 
C462: x13+x56 <=1 
C463: x13+x57 <=1 
C464: x13+x59 <=1 
C465: x14+x15 <=1 
C466: x14+x18 <=1 
C467: x14+x21 <=1 
C468: x14+x22 <=1 
C469: x14+x23 <=1 
C470: x14+x25 <=1 
C471: x14+x26-y14_26 <=1 
C472: x14+x27-y14_27 <=1 
C473: x14+x28-y14_28 <=1 
C474: x14+x29 <=1 
C475: x14+x30 <=1 
C476: x14+x31 <=1 
C477: x14+x33-y14_33 <=1 
C478: x14+x34 <=1 
C479: x14+x36-y14_36 <=1 
C480: x14+x37 <=1 
C481: x14+x42 <=1 
C482: x14+x45 <=1 
C483: x14+x48-y14_48 <=1 
C484: x14+x49 <=1 
C485: x14+x50 <=1 
C486: x14+x51-y14_51 <=1 
C487: x14+x52 <=1 
C488: x14+x53 <=1 
C489: x14+x55 <=1 
C490: x14+x56-y14_56 <=1 
C491: x14+x59 <=1 
C492: x15+x20 <=1 
C493: x15+x21-y15_21 <=1 
C494: x15+x22 <=1 
C495: x15+x23-y15_23 <=1 
C496: x15+x24 <=1 
C497: x15+x25-y15_25 <=1 
C498: x15+x29-y15_29 <=1 
C499: x15+x31-y15_31 <=1 
C500: x15+x32-y15_32 <=1 
C501: x15+x34 <=1 
C502: x15+x35-y15_35 <=1 
C503: x15+x42-y15_42 <=1 
C504: x15+x43-y15_43 <=1 
C505: x15+x44 <=1 
C506: x15+x47 <=1 
C507: x15+x49-y15_49 <=1 
C508: x15+x50-y15_50 <=1 
C509: x15+x51 <=1 
C510: x16+x18 <=1 
C511: x16+x19-y16_19 <=1 
C512: x16+x21 <=1 
C513: x16+x23 <=1 
C514: x16+x24 <=1 
C515: x16+x28-y16_28 <=1 
C516: x16+x29-y16_29 <=1 
C517: x16+x32 <=1 
C518: x16+x34 <=1 
C519: x16+x36 <=1 
C520: x16+x37-y16_37 <=1 
C521: x16+x38-y16_38 <=1 
C522: x16+x40 <=1 
C523: x16+x41-y16_41 <=1 
C524: x16+x43-y16_43 <=1 
C525: x16+x44-y16_44 <=1 
C526: x16+x45 <=1 
C527: x16+x46 <=1 
C528: x16+x50-y16_50 <=1 
C529: x16+x52-y16_52 <=1 
C530: x16+x53 <=1 
C531: x16+x54 <=1 
C532: x16+x56-y16_56 <=1 
C533: x16+x58 <=1 
C534: x16+x59 <=1 
C535: x17+x20-y17_20 <=1 
C536: x17+x21-y17_21 <=1 
C537: x17+x22 <=1 
C538: x17+x26 <=1 
C539: x17+x28 <=1 
C540: x17+x29 <=1 
C541: x17+x31-y17_31 <=1 
C542: x17+x32-y17_32 <=1 
C543: x17+x33 <=1 
C544: x17+x35-y17_35 <=1 
C545: x17+x36 <=1 
C546: x17+x39-y17_39 <=1 
C547: x17+x41 <=1 
C548: x17+x42-y17_42 <=1 
C549: x17+x44-y17_44 <=1 
C550: x17+x45-y17_45 <=1 
C551: x17+x46-y17_46 <=1 
C552: x17+x47 <=1 
C553: x17+x48-y17_48 <=1 
C554: x17+x49-y17_49 <=1 
C555: x17+x50-y17_50 <=1 
C556: x17+x53-y17_53 <=1 
C557: x17+x55 <=1 
C558: x17+x56 <=1 
C559: x17+x57 <=1 
C560: x17+x58-y17_58 <=1 
C561: x18+x19-y18_19 <=1 
C562: x18+x21 <=1 
C563: x18+x23-y18_23 <=1 
C564: x18+x24 <=1 
C565: x18+x25 <=1 
C566: x18+x27 <=1 
C567: x18+x29-y18_29 <=1 
C568: x18+x30 <=1 
C569: x18+x32 <=1 
C570: x18+x33 <=1 
C571: x18+x35 <=1 
C572: x18+x37-y18_37 <=1 
C573: x18+x38 <=1 
C574: x18+x39-y18_39 <=1 
C575: x18+x40-y18_40 <=1 
C576: x18+x42 <=1 
C577: x18+x43 <=1 
C578: x18+x44 <=1 
C579: x18+x45-y18_45 <=1 
C580: x18+x46 <=1 
C581: x18+x50 <=1 
C582: x18+x51 <=1 
C583: x18+x52-y18_52 <=1 
C584: x18+x53 <=1 
C585: x18+x55-y18_55 <=1 
C586: x18+x56-y18_56 <=1 
C587: x18+x57-y18_57 <=1 
C588: x19+x20 <=1 
C589: x19+x22-y19_22 <=1 
C590: x19+x23-y19_23 <=1 
C591: x19+x24-y19_24 <=1 
C592: x19+x25-y19_25 <=1 
C593: x19+x26-y19_26 <=1 
C594: x19+x27-y19_27 <=1 
C595: x19+x30-y19_30 <=1 
C596: x19+x31 <=1 
C597: x19+x32 <=1 
C598: x19+x33-y19_33 <=1 
C599: x19+x34-y19_34 <=1 
C600: x19+x36-y19_36 <=1 
C601: x19+x37 <=1 
C602: x19+x40 <=1 
C603: x19+x41 <=1 
C604: x19+x42 <=1 
C605: x19+x45 <=1 
C606: x19+x46 <=1 
C607: x19+x47 <=1 
C608: x19+x48-y19_48 <=1 
C609: x19+x49 <=1 
C610: x19+x52-y19_52 <=1 
C611: x19+x53 <=1 
C612: x19+x57 <=1 
C613: x19+x59 <=1 
C614: x20+x22-y20_22 <=1 
C615: x20+x23 <=1 
C616: x20+x24 <=1 
C617: x20+x25 <=1 
C618: x20+x27-y20_27 <=1 
C619: x20+x30-y20_30 <=1 
C620: x20+x31 <=1 
C621: x20+x32-y20_32 <=1 
C622: x20+x33 <=1 
C623: x20+x34 <=1 
C624: x20+x35-y20_35 <=1 
C625: x20+x38 <=1 
C626: x20+x42 <=1 
C627: x20+x43 <=1 
C628: x20+x44-y20_44 <=1 
C629: x20+x45-y20_45 <=1 
C630: x20+x47 <=1 
C631: x20+x48 <=1 
C632: x20+x49 <=1 
C633: x20+x50-y20_50 <=1 
C634: x20+x51 <=1 
C635: x20+x56-y20_56 <=1 
C636: x20+x57 <=1 
C637: x20+x58-y20_58 <=1 
C638: x20+x59-y20_59 <=1 
C639: x21+x22-y21_22 <=1 
C640: x21+x25 <=1 
C641: x21+x26-y21_26 <=1 
C642: x21+x27-y21_27 <=1 
C643: x21+x29 <=1 
C644: x21+x30 <=1 
C645: x21+x31 <=1 
C646: x21+x32 <=1 
C647: x21+x33-y21_33 <=1 
C648: x21+x34-y21_34 <=1 
C649: x21+x36 <=1 
C650: x21+x37 <=1 
C651: x21+x38 <=1 
C652: x21+x39-y21_39 <=1 
C653: x21+x41 <=1 
C654: x21+x42 <=1 
C655: x21+x43 <=1 
C656: x21+x44-y21_44 <=1 
C657: x21+x45-y21_45 <=1 
C658: x21+x46 <=1 
C659: x21+x47-y21_47 <=1 
C660: x21+x48 <=1 
C661: x21+x49-y21_49 <=1 
C662: x21+x52-y21_52 <=1 
C663: x21+x53-y21_53 <=1 
C664: x21+x54 <=1 
C665: x21+x55 <=1 
C666: x21+x58 <=1 
C667: x21+x59-y21_59 <=1 
C668: x22+x25-y22_25 <=1 
C669: x22+x26 <=1 
C670: x22+x27 <=1 
C671: x22+x29 <=1 
C672: x22+x31 <=1 
C673: x22+x35 <=1 
C674: x22+x36-y22_36 <=1 
C675: x22+x37 <=1 
C676: x22+x38 <=1 
C677: x22+x39-y22_39 <=1 
C678: x22+x40 <=1 
C679: x22+x42 <=1 
C680: x22+x43 <=1 
C681: x22+x46-y22_46 <=1 
C682: x22+x47-y22_47 <=1 
C683: x22+x49 <=1 
C684: x22+x50 <=1 
C685: x22+x52-y22_52 <=1 
C686: x22+x58 <=1 
C687: x22+x59-y22_59 <=1 
C688: x23+x24-y23_24 <=1 
C689: x23+x26-y23_26 <=1 
C690: x23+x27-y23_27 <=1 
C691: x23+x28 <=1 
C692: x23+x30-y23_30 <=1 
C693: x23+x31 <=1 
C694: x23+x33-y23_33 <=1 
C695: x23+x37 <=1 
C696: x23+x39-y23_39 <=1 
C697: x23+x40-y23_40 <=1 
C698: x23+x41-y23_41 <=1 
C699: x23+x42-y23_42 <=1 
C700: x23+x44-y23_44 <=1 
C701: x23+x45 <=1 
C702: x23+x46 <=1 
C703: x23+x47 <=1 
C704: x23+x48-y23_48 <=1 
C705: x23+x50 <=1 
C706: x23+x51-y23_51 <=1 
C707: x23+x52 <=1 
C708: x23+x54-y23_54 <=1 
C709: x23+x57-y23_57 <=1 
C710: x23+x58-y23_58 <=1 
C711: x23+x59-y23_59 <=1 
C712: x24+x25-y24_25 <=1 
C713: x24+x27-y24_27 <=1 
C714: x24+x28 <=1 
C715: x24+x29-y24_29 <=1 
C716: x24+x31-y24_31 <=1 
C717: x24+x34 <=1 
C718: x24+x35-y24_35 <=1 
C719: x24+x36-y24_36 <=1 
C720: x24+x37-y24_37 <=1 
C721: x24+x38-y24_38 <=1 
C722: x24+x41-y24_41 <=1 
C723: x24+x43 <=1 
C724: x24+x45 <=1 
C725: x24+x46-y24_46 <=1 
C726: x24+x47-y24_47 <=1 
C727: x24+x50-y24_50 <=1 
C728: x24+x51-y24_51 <=1 
C729: x24+x52-y24_52 <=1 
C730: x24+x53 <=1 
C731: x24+x54-y24_54 <=1 
C732: x24+x55-y24_55 <=1 
C733: x24+x57 <=1 
C734: x24+x58-y24_58 <=1 
C735: x24+x59-y24_59 <=1 
C736: x25+x28 <=1 
C737: x25+x29 <=1 
C738: x25+x30-y25_30 <=1 
C739: x25+x33 <=1 
C740: x25+x35 <=1 
C741: x25+x38 <=1 
C742: x25+x40-y25_40 <=1 
C743: x25+x41-y25_41 <=1 
C744: x25+x43 <=1 
C745: x25+x46-y25_46 <=1 
C746: x25+x47-y25_47 <=1 
C747: x25+x48-y25_48 <=1 
C748: x25+x50-y25_50 <=1 
C749: x25+x51-y25_51 <=1 
C750: x25+x54 <=1 
C751: x25+x55-y25_55 <=1 
C752: x25+x57 <=1 
C753: x25+x58-y25_58 <=1 
C754: x26+x28-y26_28 <=1 
C755: x26+x29 <=1 
C756: x26+x30 <=1 
C757: x26+x33-y26_33 <=1 
C758: x26+x35 <=1 
C759: x26+x36 <=1 
C760: x26+x37 <=1 
C761: x26+x39 <=1 
C762: x26+x41 <=1 
C763: x26+x42 <=1 
C764: x26+x44 <=1 
C765: x26+x45-y26_45 <=1 
C766: x26+x46 <=1 
C767: x26+x48 <=1 
C768: x26+x49-y26_49 <=1 
C769: x26+x50-y26_50 <=1 
C770: x26+x52-y26_52 <=1 
C771: x26+x53-y26_53 <=1 
C772: x26+x54-y26_54 <=1 
C773: x26+x55-y26_55 <=1 
C774: x27+x28 <=1 
C775: x27+x34-y27_34 <=1 
C776: x27+x35-y27_35 <=1 
C777: x27+x37 <=1 
C778: x27+x38 <=1 
C779: x27+x40-y27_40 <=1 
C780: x27+x43 <=1 
C781: x27+x45 <=1 
C782: x27+x46 <=1 
C783: x27+x47 <=1 
C784: x27+x52 <=1 
C785: x27+x54-y27_54 <=1 
C786: x27+x58-y27_58 <=1 
C787: x27+x59-y27_59 <=1 
C788: x28+x29-y28_29 <=1 
C789: x28+x30 <=1 
C790: x28+x32 <=1 
C791: x28+x36 <=1 
C792: x28+x38 <=1 
C793: x28+x39-y28_39 <=1 
C794: x28+x40 <=1 
C795: x28+x42-y28_42 <=1 
C796: x28+x43-y28_43 <=1 
C797: x28+x45 <=1 
C798: x28+x46-y28_46 <=1 
C799: x28+x47-y28_47 <=1 
C800: x28+x48 <=1 
C801: x28+x50 <=1 
C802: x28+x52 <=1 
C803: x28+x53 <=1 
C804: x28+x55 <=1 
C805: x28+x56 <=1 
C806: x28+x57-y28_57 <=1 
C807: x28+x59-y28_59 <=1 
C808: x29+x30-y29_30 <=1 
C809: x29+x33 <=1 
C810: x29+x34 <=1 
C811: x29+x35-y29_35 <=1 
C812: x29+x38 <=1 
C813: x29+x40-y29_40 <=1 
C814: x29+x44 <=1 
C815: x29+x48-y29_48 <=1 
C816: x29+x52 <=1 
C817: x29+x55 <=1 
C818: x29+x56 <=1 
C819: x29+x57 <=1 
C820: x29+x58 <=1 
C821: x30+x31 <=1 
C822: x30+x34 <=1 
C823: x30+x35 <=1 
C824: x30+x36 <=1 
C825: x30+x38-y30_38 <=1 
C826: x30+x39-y30_39 <=1 
C827: x30+x40 <=1 
C828: x30+x42-y30_42 <=1 
C829: x30+x43 <=1 
C830: x30+x44-y30_44 <=1 
C831: x30+x46 <=1 
C832: x30+x47 <=1 
C833: x30+x48 <=1 
C834: x30+x50 <=1 
C835: x30+x52-y30_52 <=1 
C836: x30+x54 <=1 
C837: x30+x56 <=1 
C838: x30+x58 <=1 
C839: x30+x59-y30_59 <=1 
C840: x31+x33 <=1 
C841: x31+x34-y31_34 <=1 
C842: x31+x35 <=1 
C843: x31+x36-y31_36 <=1 
C844: x31+x45 <=1 
C845: x31+x51-y31_51 <=1 
C846: x31+x52 <=1 
C847: x31+x53-y31_53 <=1 
C848: x31+x57-y31_57 <=1 
C849: x31+x58 <=1 
C850: x31+x59-y31_59 <=1 
C851: x32+x33-y32_33 <=1 
C852: x32+x34-y32_34 <=1 
C853: x32+x38-y32_38 <=1 
C854: x32+x39 <=1 
C855: x32+x40 <=1 
C856: x32+x41 <=1 
C857: x32+x42-y32_42 <=1 
C858: x32+x43 <=1 
C859: x32+x44-y32_44 <=1 
C860: x32+x45-y32_45 <=1 
C861: x32+x48-y32_48 <=1 
C862: x32+x49 <=1 
C863: x32+x50-y32_50 <=1 
C864: x32+x53 <=1 
C865: x32+x54-y32_54 <=1 
C866: x32+x55-y32_55 <=1 
C867: x32+x56 <=1 
C868: x32+x57 <=1 
C869: x32+x58-y32_58 <=1 
C870: x32+x59-y32_59 <=1 
C871: x33+x34-y33_34 <=1 
C872: x33+x38 <=1 
C873: x33+x39 <=1 
C874: x33+x40 <=1 
C875: x33+x42 <=1 
C876: x33+x43 <=1 
C877: x33+x44 <=1 
C878: x33+x45 <=1 
C879: x33+x46 <=1 
C880: x33+x47-y33_47 <=1 
C881: x33+x48-y33_48 <=1 
C882: x33+x49 <=1 
C883: x33+x50 <=1 
C884: x33+x51-y33_51 <=1 
C885: x33+x53 <=1 
C886: x33+x55 <=1 
C887: x33+x58 <=1 
C888: x34+x36-y34_36 <=1 
C889: x34+x37 <=1 
C890: x34+x38-y34_38 <=1 
C891: x34+x39-y34_39 <=1 
C892: x34+x41 <=1 
C893: x34+x45-y34_45 <=1 
C894: x34+x48-y34_48 <=1 
C895: x34+x54-y34_54 <=1 
C896: x34+x55-y34_55 <=1 
C897: x34+x57-y34_57 <=1 
C898: x34+x58-y34_58 <=1 
C899: x34+x59-y34_59 <=1 
C900: x35+x36 <=1 
C901: x35+x37 <=1 
C902: x35+x38 <=1 
C903: x35+x42 <=1 
C904: x35+x44-y35_44 <=1 
C905: x35+x46-y35_46 <=1 
C906: x35+x50-y35_50 <=1 
C907: x35+x51-y35_51 <=1 
C908: x35+x55 <=1 
C909: x35+x56-y35_56 <=1 
C910: x35+x58 <=1 
C911: x35+x59-y35_59 <=1 
C912: x36+x37 <=1 
C913: x36+x39-y36_39 <=1 
C914: x36+x40 <=1 
C915: x36+x41-y36_41 <=1 
C916: x36+x42 <=1 
C917: x36+x43-y36_43 <=1 
C918: x36+x45 <=1 
C919: x36+x46 <=1 
C920: x36+x47-y36_47 <=1 
C921: x36+x48 <=1 
C922: x36+x49-y36_49 <=1 
C923: x36+x51-y36_51 <=1 
C924: x36+x52 <=1 
C925: x36+x53-y36_53 <=1 
C926: x36+x56 <=1 
C927: x36+x58 <=1 
C928: x37+x39-y37_39 <=1 
C929: x37+x41-y37_41 <=1 
C930: x37+x43-y37_43 <=1 
C931: x37+x44 <=1 
C932: x37+x45-y37_45 <=1 
C933: x37+x48-y37_48 <=1 
C934: x37+x50-y37_50 <=1 
C935: x37+x52 <=1 
C936: x37+x53-y37_53 <=1 
C937: x37+x54 <=1 
C938: x37+x55 <=1 
C939: x37+x57 <=1 
C940: x37+x59-y37_59 <=1 
C941: x38+x41-y38_41 <=1 
C942: x38+x42 <=1 
C943: x38+x43-y38_43 <=1 
C944: x38+x45 <=1 
C945: x38+x47 <=1 
C946: x38+x48-y38_48 <=1 
C947: x38+x49-y38_49 <=1 
C948: x38+x51 <=1 
C949: x38+x52 <=1 
C950: x38+x53-y38_53 <=1 
C951: x38+x54 <=1 
C952: x38+x56 <=1 
C953: x38+x57-y38_57 <=1 
C954: x38+x58-y38_58 <=1 
C955: x39+x43 <=1 
C956: x39+x47-y39_47 <=1 
C957: x39+x48 <=1 
C958: x39+x49 <=1 
C959: x39+x50 <=1 
C960: x39+x52-y39_52 <=1 
C961: x39+x54-y39_54 <=1 
C962: x39+x56-y39_56 <=1 
C963: x39+x59-y39_59 <=1 
C964: x40+x41-y40_41 <=1 
C965: x40+x42 <=1 
C966: x40+x43-y40_43 <=1 
C967: x40+x45 <=1 
C968: x40+x46 <=1 
C969: x40+x47 <=1 
C970: x40+x55-y40_55 <=1 
C971: x40+x57-y40_57 <=1 
C972: x41+x43 <=1 
C973: x41+x44 <=1 
C974: x41+x46 <=1 
C975: x41+x49-y41_49 <=1 
C976: x41+x50-y41_50 <=1 
C977: x41+x52 <=1 
C978: x41+x53-y41_53 <=1 
C979: x41+x54-y41_54 <=1 
C980: x41+x55 <=1 
C981: x41+x56 <=1 
C982: x42+x44 <=1 
C983: x42+x47 <=1 
C984: x42+x48 <=1 
C985: x42+x49 <=1 
C986: x42+x50 <=1 
C987: x42+x51-y42_51 <=1 
C988: x42+x52 <=1 
C989: x42+x53-y42_53 <=1 
C990: x42+x55 <=1 
C991: x42+x56-y42_56 <=1 
C992: x42+x57-y42_57 <=1 
C993: x42+x58-y42_58 <=1 
C994: x42+x59-y42_59 <=1 
C995: x43+x44 <=1 
C996: x43+x45-y43_45 <=1 
C997: x43+x48 <=1 
C998: x43+x50 <=1 
C999: x43+x51-y43_51 <=1 
C1000: x43+x53 <=1 
C1001: x43+x55-y43_55 <=1 
C1002: x43+x56-y43_56 <=1 
C1003: x43+x57-y43_57 <=1 
C1004: x43+x59-y43_59 <=1 
C1005: x44+x45 <=1 
C1006: x44+x46 <=1 
C1007: x44+x47 <=1 
C1008: x44+x48 <=1 
C1009: x44+x51 <=1 
C1010: x44+x52 <=1 
C1011: x44+x53-y44_53 <=1 
C1012: x44+x56-y44_56 <=1 
C1013: x44+x58 <=1 
C1014: x44+x59-y44_59 <=1 
C1015: x45+x46 <=1 
C1016: x45+x49-y45_49 <=1 
C1017: x45+x52-y45_52 <=1 
C1018: x45+x53 <=1 
C1019: x45+x54 <=1 
C1020: x45+x55-y45_55 <=1 
C1021: x45+x56 <=1 
C1022: x45+x57 <=1 
C1023: x45+x58 <=1 
C1024: x45+x59 <=1 
C1025: x46+x47-y46_47 <=1 
C1026: x46+x48 <=1 
C1027: x46+x49 <=1 
C1028: x46+x51-y46_51 <=1 
C1029: x46+x55-y46_55 <=1 
C1030: x46+x56 <=1 
C1031: x46+x59 <=1 
C1032: x47+x48-y47_48 <=1 
C1033: x47+x49-y47_49 <=1 
C1034: x47+x50 <=1 
C1035: x47+x51 <=1 
C1036: x47+x53-y47_53 <=1 
C1037: x47+x54-y47_54 <=1 
C1038: x47+x57-y47_57 <=1 
C1039: x47+x58-y47_58 <=1 
C1040: x47+x59-y47_59 <=1 
C1041: x48+x49-y48_49 <=1 
C1042: x48+x50 <=1 
C1043: x48+x51 <=1 
C1044: x48+x53 <=1 
C1045: x48+x55-y48_55 <=1 
C1046: x48+x56-y48_56 <=1 
C1047: x48+x59 <=1 
C1048: x49+x55-y49_55 <=1 
C1049: x49+x56-y49_56 <=1 
C1050: x49+x58 <=1 
C1051: x49+x59-y49_59 <=1 
C1052: x50+x52 <=1 
C1053: x50+x53-y50_53 <=1 
C1054: x50+x54-y50_54 <=1 
C1055: x50+x56-y50_56 <=1 
C1056: x51+x54-y51_54 <=1 
C1057: x51+x56 <=1 
C1058: x51+x57 <=1 
C1059: x51+x59-y51_59 <=1 
C1060: x52+x54-y52_54 <=1 
C1061: x52+x55-y52_55 <=1 
C1062: x52+x56-y52_56 <=1 
C1063: x52+x57 <=1 
C1064: x52+x58 <=1 
C1065: x53+x55-y53_55 <=1 
C1066: x53+x57-y53_57 <=1 
C1067: x53+x58 <=1 
C1068: x53+x59 <=1 
C1069: x54+x56-y54_56 <=1 
C1070: x54+x58 <=1 
C1071: x54+x59-y54_59 <=1 
C1072: x55+x56 <=1 
C1073: x55+x57-y55_57 <=1 
C1074: x56+x58 <=1 
C1075: x56+x59-y56_59 <=1 
C1076: x57+x58 <=1 
C1077: x57+x59 <=1 
C1078: x58+x59 <=1 

binary
x0
x1
x2
x3
x4
x5
x6
x7
x8
x9
x10
x11
x12
x13
x14
x15
x16
x17
x18
x19
x20
x21
x22
x23
x24
x25
x26
x27
x28
x29
x30
x31
x32
x33
x34
x35
x36
x37
x38
x39
x40
x41
x42
x43
x44
x45
x46
x47
x48
x49
x50
x51
x52
x53
x54
x55
x56
x57
x58
x59
