problem_generation/data/GISP/train/er_n=60_m=1078_p=0.60_SET2_setparam=100.00_alpha=0.50_466.sol
objective value:                                 1268
x3                                                  1 	(obj:100)
x8                                                  1 	(obj:100)
x11                                                 1 	(obj:100)
x25                                                 1 	(obj:100)
x26                                                 1 	(obj:100)
x27                                                 1 	(obj:100)
x31                                                 1 	(obj:100)
x34                                                 1 	(obj:100)
x40                                                 1 	(obj:100)
x49                                                 1 	(obj:100)
x50                                                 1 	(obj:100)
x56                                                 1 	(obj:100)
x59                                                 1 	(obj:100)
y11_56                                              1 	(obj:-1)
y31_34                                              1 	(obj:-1)
y27_59                                              1 	(obj:-1)
y50_56                                              1 	(obj:-1)
y8_59                                               1 	(obj:-1)
y49_59                                              1 	(obj:-1)
y8_27                                               1 	(obj:-1)
y27_40                                              1 	(obj:-1)
y11_59                                              1 	(obj:-1)
y11_27                                              1 	(obj:-1)
y8_49                                               1 	(obj:-1)
y8_26                                               1 	(obj:-1)
y11_31                                              1 	(obj:-1)
y3_59                                               1 	(obj:-1)
y11_26                                              1 	(obj:-1)
y25_50                                              1 	(obj:-1)
y3_40                                               1 	(obj:-1)
y3_49                                               1 	(obj:-1)
y8_11                                               1 	(obj:-1)
y3_8                                                1 	(obj:-1)
y25_40                                              1 	(obj:-1)
y3_11                                               1 	(obj:-1)
y3_56                                               1 	(obj:-1)
y31_59                                              1 	(obj:-1)
y27_34                                              1 	(obj:-1)
y8_25                                               1 	(obj:-1)
y26_50                                              1 	(obj:-1)
y34_59                                              1 	(obj:-1)
y56_59                                              1 	(obj:-1)
y49_56                                              1 	(obj:-1)
y26_49                                              1 	(obj:-1)
y3_34                                               1 	(obj:-1)
